clingo version 5.5.2
Reading from ...nt/beegfs/home/jubruns/encoding/mif.lp ...
Solving...
Answer: 1
move(1,(21,3),(21,4),1) move(1,(21,4),(21,5),2) move(1,(21,5),(21,6),3) move(1,(21,6),(21,7),4) move(1,(21,7),(21,8),5) move(1,(21,8),(20,8),6) move(1,(20,8),(20,9),7) move(1,(20,9),(20,10),8) move(1,(20,10),(20,11),9) move(1,(20,11),(20,12),10) move(1,(20,12),(20,13),11) move(1,(20,13),(20,14),12) move(1,(20,14),(20,15),13) move(1,(20,15),(20,16),14) move(1,(20,16),(20,17),15) move(1,(20,17),(19,17),16) move(1,(19,17),(19,18),17) move(1,(19,18),(18,18),18) move(1,(18,18),(18,19),19) move(1,(18,19),(18,20),20) move(1,(18,20),(19,20),21) move(1,(19,20),(20,20),22) move(1,(20,20),(20,21),23) move(1,(20,21),(21,21),24) move(2,(1,11),(1,10),1) move(2,(1,10),(1,9),2) move(2,(1,9),(2,9),3) move(2,(2,9),(2,8),4) move(2,(2,8),(2,7),5) move(2,(2,7),(2,6),6) move(2,(2,6),(2,5),7)
SATISFIABLE

Models       : 1+
Calls        : 1
Time         : 2.222s (Solving: 0.18s 1st Model: 0.18s Unsat: 0.00s)
CPU Time     : 2.187s

Choices      : 6249     (Domain: 106)
Conflicts    : 7        (Analyzed: 7)
Restarts     : 0       
Model-Level  : 6187.0  
Problems     : 1        (Average Length: 0.00 Splits: 0)
Lemmas       : 22       (Deleted: 0)
  Binary     : 1        (Ratio:   4.55%)
  Ternary    : 0        (Ratio:   0.00%)
  Conflict   : 7        (Average Length:   24.1 Ratio:  31.82%) 
  Loop       : 15       (Average Length:  473.3 Ratio:  68.18%) 
  Other      : 0        (Average Length:    0.0 Ratio:   0.00%) 
Backjumps    : 7        (Average:  8.86 Max:  18 Sum:     62)
  Executed   : 7        (Average:  8.86 Max:  18 Sum:     62 Ratio: 100.00%)
  Bounded    : 0        (Average:  0.00 Max:   0 Sum:      0 Ratio:   0.00%)

Rules        : 940652   (Original: 1176885)
  Choice     : 14789   
  Heuristic  : 529035   (Original: 853741)
Atoms        : 233667   (Original: 219971 Auxiliary: 13696)
Bodies       : 251070   (Original: 217711)
  Count      : 46       (Original: 24224)
Equivalences : 276767   (Atom=Atom: 24770 Body=Body: 23593 Other: 228404)
Tight        : No       (SCCs: 2 Non-Hcfs: 0 Nodes: 71790 Gammas: 0)
Variables    : 220948   (Eliminated:    0 Frozen: 75588)
Constraints  : 606838   (Binary:  72.8% Ternary:  20.9% Other:   6.3%)

